Problem:    pfsp
Rows:       22
Columns:    10 (3 integer, 3 binary)
Non-zeros:  52
Status:     INTEGER OPTIMAL
Objective:  makespan = 4 (MINimum)

   No.   Row name        Activity     Lower bound   Upper bound
------ ------------    ------------- ------------- -------------
     1 makespan                    4                             
     2 rest1[1]                    2             1               
     3 rest1[2]                    3             1               
     4 rest1[3]                    1             1               
     5 rest2[1,2]                  1             1               
     6 rest2[2,2]                  1             1               
     7 rest2[3,2]                  1             1               
     8 rest3[2,1,1]               99             1               
     9 rest3[2,1,2]               99             1               
    10 rest3[3,1,1]                1             1               
    11 rest3[3,1,2]                1             1               
    12 rest3[3,2,1]                2             1               
    13 rest3[3,2,2]                2             1               
    14 rest4[2,1,1]               99                          99 
    15 rest4[2,1,2]               99                          99 
    16 rest4[3,1,1]                1                          99 
    17 rest4[3,1,2]                1                          99 
    18 rest4[3,2,1]                2                          99 
    19 rest4[3,2,2]                2                          99 
    20 rest5[1]                    1            -0               
    21 rest5[2]                    0            -0               
    22 rest5[3]                    2            -0               

   No. Column name       Activity     Lower bound   Upper bound
------ ------------    ------------- ------------- -------------
     1 D[1,2]       *              1             0             1 
     2 D[1,3]       *              0             0             1 
     3 D[2,3]       *              0             0             1 
     4 C[1,1]                      2                             
     5 C[2,1]                      3                             
     6 C[3,1]                      1                             
     7 C[1,2]                      3                             
     8 C[2,2]                      4                             
     9 C[3,2]                      2                             
    10 Cmax                        4                             

Integer feasibility conditions:

KKT.PE: max.abs.err = 0.00e+00 on row 0
        max.rel.err = 0.00e+00 on row 0
        High quality

KKT.PB: max.abs.err = 0.00e+00 on row 0
        max.rel.err = 0.00e+00 on row 0
        High quality

End of output
